0 1
0 2
0 3
0 4
0 5
0 6
0 9
0 10
0 12
0 13
0 14
0 16
0 18
0 19
0 20
0 21
0 27
0 31
0 34
0 36
0 39
0 40
0 42
0 43
0 45
0 46
0 47
0 50
0 52
0 53
0 54
0 55
0 62
0 63
0 64
0 65
0 67
0 72
0 74
0 75
0 79
0 85
0 86
0 87
0 91
0 95
0 98
0 99
0 103
0 104
0 110
0 111
0 115
0 118
0 119
0 121
0 128
0 135
0 136
0 137
0 140
0 141
0 149
0 151
0 153
0 154
0 155
0 156
0 162
0 166
0 172
0 173
0 175
0 177
0 179
0 182
0 190
0 193
0 195
0 200
0 202
0 203
0 205
0 209
0 211
0 214
0 219
0 223
0 225
0 229
0 231
0 233
0 242
0 250
0 251
0 252
0 257
0 271
0 272
0 273
0 274
0 276
0 279
0 281
0 288
0 289
0 290
0 291
0 292
0 293
0 294
0 295
0 296
0 297
0 303
0 309
0 329
0 330
0 331
0 332
0 333
0 334
0 335
0 336
0 337
0 338
0 339
0 340
0 341
0 342
0 343
0 344
0 345
0 346
0 347
0 348
0 349
0 350
0 351
0 354
0 356
0 358
0 361
0 363
0 367
0 368
0 370
0 427
0 428
0 429
0 430
0 431
0 432
0 433
0 434
0 435
0 436
0 437
0 438
0 439
0 440
0 441
0 442
0 443
0 444
0 445
0 446
0 447
0 448
0 449
0 450
0 451
0 452
0 453
0 454
0 455
0 456
0 457
0 458
0 459
0 460
0 461
0 462
0 463
0 464
0 465
0 466
0 467
0 468
0 469
0 470
0 471
0 474
0 477
0 486
0 487
0 684
0 685
0 686
0 687
0 688
0 689
0 690
0 691
0 692
0 693
0 694
0 695
0 696
0 697
0 698
0 699
0 700
0 701
0 702
0 703
0 704
0 705
0 706
0 707
0 708
0 709
0 710
0 711
0 712
0 713
0 714
0 715
0 716
0 717
0 718
0 719
0 720
0 721
0 722
0 723
0 724
0 725
0 726
0 727
0 728
0 729
0 730
0 731
0 732
0 733
0 734
0 735
0 736
0 737
0 738
0 739
0 740
0 741
0 742
0 743
0 744
0 745
0 746
0 747
0 748
0 749
0 750
0 751
0 752
0 753
0 754
0 755
0 756
0 757
0 758
0 759
0 760
0 761
0 762
0 763
0 764
0 765
0 766
0 767
0 768
0 769
0 770
0 771
0 772
0 773
0 774
0 775
0 776
0 777
0 778
0 779
0 780
0 781
0 782
0 784
0 787
0 788
0 797
0 801
0 809
0 812
0 815
0 816
0 817
0 821
0 822
0 823
0 826
0 829
0 830
0 834
0 837
0 841
0 844
0 845
0 963
0 964
0 965
0 966
0 967
0 968
0 969
0 970
0 971
0 972
0 973
0 974
0 975
0 976
0 977
0 978
0 979
0 980
0 981
0 982
0 983
0 984
1 2
1 3
1 4
1 5
1 6
1 7
1 8
1 9
1 10
1 12
1 14
1 16
1 17
1 18
1 19
1 20
1 29
1 31
1 32
1 37
1 40
1 42
1 43
1 46
1 47
1 50
1 53
1 54
1 63
1 64
1 69
1 72
1 75
1 79
1 86
1 90
1 91
1 95
1 99
1 101
1 103
1 104
1 107
1 109
1 114
1 118
1 121
1 122
1 128
1 131
1 141
1 146
1 147
1 155
1 156
1 159
1 162
1 166
1 175
1 182
1 193
1 198
1 199
1 201
1 205
1 211
1 214
1 219
1 229
1 230
1 231
1 232
1 234
1 236
1 250
1 251
1 256
1 272
1 274
1 279
1 289
1 294
1 297
1 298
1 303
1 309
1 313
1 317
1 318
1 319
1 325
1 327
1 331
1 332
1 333
1 336
1 337
1 339
1 346
1 347
1 353
1 355
1 362
1 363
1 376
1 377
1 393
1 394
1 395
1 396
1 403
1 408
1 431
1 433
1 435
1 438
1 441
1 442
1 444
1 449
1 455
1 456
1 457
1 459
1 466
1 483
1 485
1 492
1 501
1 502
1 505
1 507
1 509
1 510
1 512
1 513
1 515
1 517
1 518
1 525
1 526
1 527
1 548
1 556
1 558
1 559
1 562
1 565
1 567
1 570
1 575
1 582
1 583
1 594
1 619
1 632
1 635
1 642
1 646
1 669
1 670
1 676
1 684
1 686
1 689
1 697
1 703
1 711
1 714
1 716
1 718
1 724
1 732
1 733
1 736
1 738
1 740
1 741
1 742
1 748
1 751
1 756
1 760
1 770
1 771
1 772
1 774
1 787
1 796
1 798
1 805
1 809
1 815
1 832
1 837
1 866
1 867
1 868
1 881
2 3
2 4
2 5
2 6
2 7
2 8
2 10
2 11
2 12
2 14
2 15
2 16
2 17
2 18
2 20
2 21
2 23
2 24
2 26
2 28
2 29
2 30
2 31
2 34
2 38
2 41
2 42
2 45
2 46
2 48
2 49
2 50
2 51
2 57
2 59
2 60
2 61
2 62
2 64
2 65
2 66
2 71
2 72
2 77
2 78
2 84
2 91
2 93
2 94
2 95
2 97
2 99
2 100
2 101
2 102
2 103
2 104
2 106
2 107
2 108
2 109
2 110
2 111
2 112
2 115
2 116
2 120
2 127
2 128
2 130
2 133
2 134
2 140
2 142
2 152
2 153
2 158
2 167
2 169
2 181
2 182
2 183
2 186
2 187
2 188
2 200
2 206
2 212
2 213
2 215
2 216
2 224
2 227
2 239
2 240
2 242
2 243
2 246
2 247
2 248
2 251
2 262
2 264
2 267
2 268
2 270
2 284
2 285
2 286
2 295
2 296
2 297
2 299
2 300
2 305
2 308
2 311
2 316
2 319
2 323
2 326
2 329
2 330
2 338
2 340
2 360
2 369
2 380
2 381
2 382
2 383
2 384
2 403
2 407
2 414
2 419
2 420
2 426
2 435
2 528
2 529
2 530
2 531
2 539
2 541
2 542
2 546
2 551
2 553
2 561
2 579
2 591
2 595
2 596
2 597
2 599
2 604
2 614
2 629
2 631
2 633
2 651
2 660
2 663
2 680
2 694
2 783
2 789
2 798
2 811
2 831
2 839
2 840
2 886
2 887
2 888
2 889
2 890
2 891
2 899
2 905
2 939
2 943
3 4
3 5
3 6
3 7
3 9
3 10
3 12
3 13
3 14
3 16
3 17
3 18
3 19
3 20
3 21
3 25
3 26
3 31
3 32
3 36
3 37
3 39
3 40
3 41
3 42
3 44
3 46
3 47
3 48
3 52
3 53
3 57
3 59
3 60
3 63
3 65
3 72
3 74
3 75
3 77
3 79
3 80
3 84
3 86
3 87
3 89
3 96
3 97
3 99
3 100
3 104
3 106
3 107
3 118
3 119
3 121
3 124
3 128
3 131
3 140
3 141
3 148
3 155
3 156
3 161
3 166
3 170
3 176
3 177
3 182
3 186
3 193
3 197
3 198
3 202
3 205
3 208
3 211
3 214
3 226
3 229
3 231
3 233
3 236
3 241
3 247
3 253
3 265
3 272
3 273
3 288
3 313
3 318
3 321
3 322
3 325
3 327
3 332
3 333
3 335
3 336
3 337
3 347
3 350
3 362
3 363
3 377
3 378
3 386
3 394
3 402
3 403
3 404
3 405
3 410
3 412
3 425
3 430
3 433
3 436
3 438
3 441
3 444
3 448
3 451
3 452
3 453
3 468
3 487
3 505
3 506
3 507
3 508
3 509
3 510
3 511
3 512
3 513
3 514
3 515
3 518
3 521
3 536
3 544
3 550
3 551
3 552
3 563
3 573
3 576
3 578
3 580
3 581
3 606
3 609
3 623
3 624
3 628
3 632
3 637
3 638
3 639
3 683
3 685
3 688
3 691
3 705
3 706
3 712
3 726
3 729
3 735
3 737
3 753
3 754
3 755
3 759
3 762
3 767
3 782
3 790
3 791
3 794
3 796
3 799
3 800
3 802
3 842
3 843
3 850
3 875
3 876
3 877
3 878
3 880
4 5
4 6
4 8
4 9
4 10
4 11
4 12
4 13
4 14
4 16
4 17
4 18
4 19
4 20
4 21
4 22
4 26
4 28
4 31
4 32
4 33
4 35
4 37
4 38
4 39
4 42
4 43
4 44
4 46
4 47
4 49
4 51
4 52
4 53
4 54
4 55
4 59
4 60
4 62
4 63
4 64
4 65
4 66
4 67
4 74
4 75
4 78
4 79
4 83
4 84
4 86
4 87
4 88
4 90
4 93
4 94
4 95
4 97
4 99
4 100
4 101
4 104
4 106
4 107
4 108
4 109
4 110
4 115
4 118
4 120
4 121
4 122
4 123
4 124
4 125
4 127
4 128
4 130
4 131
4 133
4 139
4 144
4 146
4 147
4 150
4 152
4 153
4 155
4 156
4 158
4 159
4 164
4 168
4 169
4 170
4 172
4 173
4 178
4 180
4 183
4 193
4 206
4 210
4 211
4 224
4 225
4 227
4 232
4 233
4 237
4 250
4 254
4 255
4 258
4 259
4 268
4 269
4 273
4 274
4 278
4 280
4 286
4 291
4 294
4 297
4 299
4 302
4 303
4 304
4 324
4 325
4 326
4 327
4 334
4 339
4 341
4 355
4 356
4 360
4 364
4 365
4 370
4 416
4 417
4 418
4 419
4 420
4 421
4 422
4 423
4 426
4 428
4 462
4 464
4 475
4 480
4 485
4 490
4 652
4 653
4 654
4 655
4 656
4 657
4 658
4 659
4 660
4 661
4 662
4 663
4 664
4 665
4 666
4 675
4 698
4 701
4 725
4 768
4 780
4 804
4 808
4 840
4 843
4 960
4 961
4 962
5 6
5 8
5 9
5 10
5 12
5 14
5 16
5 18
5 19
5 20
5 21
5 23
5 26
5 31
5 37
5 42
5 44
5 45
5 46
5 48
5 55
5 57
5 59
5 63
5 66
5 72
5 77
5 88
5 90
5 92
5 102
5 103
5 112
5 114
5 115
5 124
5 152
5 153
5 164
5 178
5 198
5 205
5 233
5 236
5 251
5 261
5 274
5 276
5 277
5 282
5 288
5 313
5 318
5 327
5 331
5 346
5 353
5 392
5 393
5 394
5 395
5 401
5 408
5 411
5 442
5 452
5 465
5 483
5 485
5 487
5 562
5 563
5 564
5 565
5 566
5 567
5 568
5 569
5 570
5 571
5 572
5 573
5 574
5 575
5 576
5 581
5 585
5 586
5 616
5 618
5 636
5 641
5 656
5 657
5 659
5 666
5 679
5 690
5 702
5 731
5 734
5 747
5 776
5 797
5 814
5 820
5 826
5 847
5 849
5 910
5 911
5 912
5 913
5 914
5 915
5 916
5 917
5 922
5 930
5 937
5 938
6 8
6 9
6 10
6 11
6 12
6 13
6 14
6 15
6 16
6 17
6 18
6 19
6 20
6 21
6 23
6 26
6 27
6 28
6 30
6 31
6 32
6 34
6 35
6 37
6 40
6 41
6 42
6 46
6 47
6 50
6 51
6 55
6 57
6 59
6 60
6 61
6 63
6 64
6 68
6 69
6 70
6 72
6 73
6 74
6 75
6 77
6 79
6 81
6 84
6 85
6 94
6 101
6 102
6 108
6 115
6 118
6 119
6 121
6 123
6 124
6 128
6 138
6 141
6 143
6 144
6 145
6 148
6 158
6 159
6 171
6 172
6 176
6 180
6 181
6 183
6 192
6 193
6 203
6 204
6 205
6 206
6 217
6 225
6 226
6 227
6 232
6 233
6 234
6 241
6 255
6 256
6 277
6 278
6 279
6 283
6 301
6 302
6 303
6 304
6 305
6 308
6 364
6 365
6 366
6 367
6 368
6 369
6 370
6 481
6 482
6 483
6 820
6 821
6 822
6 823
6 824
6 825
6 998
7 8
7 9
7 10
7 11
7 12
7 14
7 15
7 16
7 20
7 21
7 24
7 25
7 26
7 28
7 29
7 31
7 32
7 38
7 43
7 44
7 45
7 46
7 48
7 51
7 57
7 59
7 60
7 61
7 63
7 71
7 72
7 81
7 91
7 95
7 115
7 128
7 143
7 162
7 198
7 238
7 250
7 297
7 303
7 304
7 316
7 317
7 318
7 322
7 326
7 332
7 333
7 337
7 343
7 353
7 408
7 409
7 410
7 447
7 454
7 479
7 482
7 616
7 617
7 618
7 619
7 620
7 621
7 622
7 623
7 624
7 625
7 626
7 627
7 628
7 636
7 699
7 704
7 717
7 719
7 727
7 775
7 777
7 785
7 791
7 828
7 830
7 834
7 836
7 946
7 947
7 948
7 949
7 950
7 951
7 952
7 999
8 10
8 11
8 14
8 15
8 16
8 18
8 19
8 20
8 21
8 24
8 26
8 27
8 28
8 31
8 32
8 37
8 41
8 42
8 44
8 45
8 46
8 48
8 51
8 54
8 55
8 57
8 59
8 60
8 61
8 63
8 72
8 81
8 83
8 95
8 107
8 110
8 115
8 124
8 151
8 182
8 193
8 288
8 295
8 321
8 322
8 325
8 328
8 338
8 377
8 392
8 399
8 411
8 421
8 447
8 468
8 494
8 502
8 533
8 534
8 545
8 554
8 566
8 574
8 603
8 645
8 677
8 710
8 799
8 841
8 883
9 10
9 11
9 12
9 13
9 14
9 15
9 16
9 17
9 18
9 19
9 20
9 21
9 23
9 24
9 25
9 26
9 28
9 29
9 31
9 32
9 34
9 38
9 42
9 45
9 46
9 48
9 61
9 63
9 66
9 70
9 88
9 91
9 97
9 100
9 101
9 110
9 115
9 124
9 138
9 152
9 172
9 178
9 180
9 188
9 192
9 206
9 210
9 215
9 232
9 236
9 245
9 249
9 255
9 259
9 277
9 283
9 286
9 302
9 336
9 373
9 417
9 480
9 606
9 617
9 649
9 671
9 757
10 12
10 14
10 16
10 17
10 18
10 20
10 21
10 26
10 27
10 31
10 34
10 39
10 42
10 48
10 51
10 55
10 57
10 63
10 66
10 71
10 72
10 116
10 118
10 133
10 140
10 141
10 159
10 230
10 238
10 250
10 257
10 328
10 340
10 350
10 376
10 398
10 434
10 497
10 499
10 529
10 543
10 564
10 584
10 640
10 664
10 700
10 720
10 730
10 761
10 808
10 817
10 845
10 851
10 861
11 13
11 15
11 20
11 21
11 23
11 24
11 25
11 27
11 29
11 30
11 31
11 34
11 37
11 38
11 41
11 44
11 49
11 51
11 52
11 54
11 64
11 67
11 69
11 74
11 76
11 78
11 83
11 84
11 89
11 91
11 94
11 95
11 97
11 99
11 100
11 102
11 103
11 108
11 109
11 110
11 124
11 127
11 130
11 133
11 138
11 141
11 147
11 150
11 151
11 157
11 158
11 166
11 169
11 172
11 183
11 186
11 187
11 191
11 192
11 201
11 206
11 212
11 214
11 215
11 216
11 218
11 227
11 235
11 237
11 239
11 240
11 244
11 245
11 246
11 254
11 263
11 269
12 13
12 14
12 15
12 16
12 17
12 18
12 19
12 20
12 21
12 23
12 24
12 27
12 31
12 34
12 38
12 40
12 42
12 43
12 44
12 46
12 47
12 49
12 50
12 51
12 53
12 57
12 60
12 63
12 65
12 68
12 70
12 72
12 74
12 75
12 77
12 79
12 80
12 81
12 86
12 88
12 92
12 101
12 102
12 108
12 111
12 115
12 118
12 121
12 131
12 135
12 137
12 141
12 151
12 160
12 165
12 172
12 175
12 177
12 187
12 188
12 207
12 220
12 230
12 232
12 255
12 262
12 265
12 273
12 278
12 282
12 310
12 338
12 367
12 460
12 811
12 864
13 14
13 15
13 16
13 17
13 18
13 19
13 20
13 23
13 27
13 28
13 34
13 36
13 37
13 41
13 42
13 46
13 51
13 60
13 63
13 64
13 67
13 74
13 77
13 84
13 85
13 91
13 100
13 120
13 136
13 149
13 154
13 202
13 209
13 242
13 266
13 272
13 290
13 335
13 351
13 389
13 415
13 429
13 430
13 450
13 451
13 463
13 469
13 474
13 650
13 723
13 865
14 16
14 17
14 18
14 19
14 20
14 23
14 24
14 28
14 29
14 37
14 38
14 40
14 42
14 43
14 48
14 57
14 59
14 63
14 64
14 65
14 72
14 75
14 77
14 79
14 81
14 86
14 87
14 107
14 118
14 119
14 124
14 133
14 141
14 142
14 146
14 159
14 171
14 172
14 175
14 201
14 232
14 250
14 426
14 437
14 450
14 453
14 461
14 473
14 476
14 479
14 676
14 677
14 678
14 679
14 680
14 681
14 682
14 683
14 758
14 765
14 779
14 812
15 16
15 17
15 19
15 20
15 21
15 23
15 24
15 25
15 26
15 27
15 29
15 30
15 31
15 34
15 38
15 39
15 41
15 44
15 51
15 52
15 54
15 56
15 60
15 62
15 64
15 67
15 69
15 74
15 76
15 78
15 81
15 83
15 84
15 89
15 91
15 94
15 95
15 97
15 99
15 100
15 102
15 108
15 109
15 110
15 118
15 120
15 124
15 127
15 130
15 133
15 138
15 141
15 144
15 147
15 149
15 150
15 151
15 157
15 158
15 166
15 169
15 172
15 178
15 181
15 183
15 186
15 192
15 201
15 212
15 214
15 215
15 218
15 244
15 248
15 262
15 264
15 268
15 305
15 374
16 17
16 18
16 19
16 20
16 21
16 23
16 27
16 28
16 29
16 30
16 32
16 34
16 37
16 42
16 46
16 48
16 51
16 57
16 60
16 63
16 64
16 68
16 72
16 74
16 76
16 78
16 83
16 85
16 100
16 101
16 102
16 108
16 118
16 121
16 124
16 125
16 138
16 144
16 150
16 166
16 170
16 184
16 201
16 216
16 218
16 236
16 239
16 246
16 255
16 263
16 273
16 301
16 385
16 416
17 18
17 19
17 20
17 21
17 23
17 24
17 25
17 26
17 30
17 31
17 34
17 41
17 63
17 100
17 217
17 272
17 334
17 374
17 500
17 516
17 592
17 612
18 19
18 20
18 21
18 23
18 24
18 26
18 27
18 28
18 31
18 34
18 37
18 42
18 46
18 48
18 51
18 55
18 57
18 59
18 60
18 61
18 63
18 64
18 65
18 72
18 74
18 76
18 78
18 91
18 93
18 94
18 97
18 99
18 101
18 102
18 110
18 111
18 115
18 118
18 121
18 124
18 138
18 150
18 158
18 169
18 177
18 178
18 181
18 193
18 206
18 215
18 216
18 254
18 273
18 300
18 302
18 357
18 366
18 475
18 476
19 20
19 21
19 23
19 24
19 26
19 28
19 31
19 37
19 42
19 46
19 48
19 51
19 53
19 55
19 59
19 60
19 63
19 64
19 65
19 67
19 68
19 69
19 70
19 71
19 72
19 84
19 100
19 102
19 121
19 125
19 130
19 135
19 136
19 137
19 149
19 161
19 170
19 181
19 183
19 186
19 201
19 213
19 287
19 300
19 301
19 305
19 389
19 407
19 612
19 896
19 957
20 21
20 23
20 25
20 26
20 28
20 31
20 32
20 37
20 42
20 44
20 46
20 51
20 60
20 63
20 64
20 67
20 68
20 69
20 70
20 72
20 81
20 84
20 97
20 99
20 100
20 102
20 110
20 111
20 115
20 118
20 125
20 169
20 170
20 183
20 187
20 191
20 201
20 230
20 235
20 249
20 255
20 259
20 269
20 352
20 365
20 369
21 23
21 24
21 25
21 26
21 27
21 28
21 29
21 30
21 31
21 34
21 37
21 39
21 41
21 43
21 44
21 46
21 48
21 51
21 52
21 54
21 55
21 56
21 57
21 59
21 60
21 61
21 62
21 64
21 67
21 69
21 71
21 72
21 73
21 74
21 76
21 77
21 78
21 81
21 83
21 84
21 89
21 93
21 94
21 97
21 99
21 100
21 102
21 108
21 110
21 115
21 118
21 120
21 124
21 127
21 130
21 133
21 138
21 141
21 149
21 150
21 178
21 181
21 183
21 192
21 212
21 214
21 215
21 217
21 229
21 232
21 239
21 247
21 262
21 418
21 516
22 88
22 105
22 140
22 289
22 339
22 349
22 350
22 356
22 384
22 398
22 431
22 558
22 572
22 598
22 626
23 25
23 27
23 28
23 29
23 30
23 34
23 37
23 41
23 43
23 44
23 46
23 51
23 52
23 54
23 56
23 59
23 60
23 63
23 64
23 67
23 69
23 70
23 74
23 77
23 78
23 83
23 84
23 89
23 91
23 93
23 94
23 97
23 99
23 100
23 102
23 110
23 118
23 124
23 127
23 133
23 138
23 158
23 166
23 181
23 186
23 187
23 192
23 201
23 206
23 216
23 217
23 248
23 266
23 302
23 311
24 25
24 26
24 27
24 28
24 29
24 30
24 31
24 37
24 38
24 43
24 44
24 47
24 48
24 51
24 52
24 54
24 55
24 57
24 59
24 61
24 67
24 69
24 71
24 72
24 81
24 83
24 84
24 91
24 95
24 96
24 102
24 108
24 109
24 110
24 115
24 116
24 118
24 124
24 131
24 141
24 147
24 150
24 151
24 172
24 178
24 182
24 191
24 200
24 229
24 234
24 243
24 265
24 278
24 283
24 301
24 323
24 795
25 26
25 27
25 29
25 30
25 31
25 34
25 38
25 39
25 48
25 49
25 56
25 61
25 62
25 64
25 66
25 68
25 69
25 72
25 73
25 74
25 76
25 77
25 78
25 84
25 89
25 90
25 91
25 94
25 95
25 97
25 99
25 100
25 102
25 103
25 106
25 107
25 116
25 127
25 130
25 133
25 138
25 150
25 157
25 158
25 166
25 169
25 171
25 181
25 187
25 191
25 192
25 215
25 218
25 225
25 230
25 234
25 245
25 254
25 265
25 301
25 359
25 481
26 27
26 29
26 30
26 31
26 32
26 36
26 37
26 38
26 42
26 43
26 44
26 46
26 48
26 51
26 52
26 54
26 55
26 57
26 59
26 62
26 66
26 67
26 69
26 71
26 72
26 77
26 81
26 84
26 91
26 92
26 95
26 102
26 104
26 108
26 109
26 111
26 114
26 115
26 117
26 124
26 141
26 150
26 151
26 160
26 172
26 182
26 197
26 202
26 203
26 207
26 229
26 234
26 306
26 348
26 484
27 29
27 30
27 31
27 34
27 38
27 41
27 44
27 46
27 48
27 49
27 57
27 61
27 63
27 65
27 68
27 76
27 77
27 78
27 84
27 85
27 95
27 99
27 101
27 102
27 104
27 108
27 121
27 127
27 130
27 131
27 135
27 136
27 137
27 147
27 154
27 177
27 178
27 194
27 215
27 235
27 237
27 243
27 270
27 519
27 561
28 29
28 30
28 31
28 34
28 37
28 38
28 39
28 42
28 46
28 53
28 55
28 61
28 84
28 91
28 93
28 95
28 97
28 99
28 100
28 102
28 110
28 147
28 162
28 215
28 248
28 268
28 365
28 634
28 818
29 30
29 31
29 34
29 37
29 38
29 43
29 44
29 49
29 51
29 52
29 54
29 56
29 60
29 61
29 64
29 67
29 69
29 74
29 76
29 77
29 81
29 84
29 89
29 91
29 94
29 100
29 110
29 118
29 124
29 127
29 133
29 141
29 147
29 150
29 151
29 156
29 157
29 158
29 166
29 169
29 172
29 178
29 181
29 182
29 191
29 200
29 206
29 214
29 218
29 227
29 234
29 245
29 246
29 254
29 262
29 269
29 293
29 300
29 418
29 462
29 578
29 579
30 31
30 34
30 38
30 41
30 43
30 45
30 46
30 47
30 49
30 51
30 55
30 60
30 61
30 62
30 64
30 70
30 71
30 72
30 73
30 76
30 77
30 78
30 91
30 94
30 97
30 102
30 115
30 141
30 147
30 151
30 166
30 171
30 187
30 214
30 225
30 230
30 235
30 243
30 245
31 32
31 36
31 37
31 38
31 44
31 48
31 51
31 52
31 54
31 55
31 57
31 59
31 60
31 63
31 67
31 69
31 71
31 72
31 77
31 81
31 84
31 91
31 95
31 108
31 114
31 115
31 118
31 124
31 151
31 160
31 182
31 207
31 306
31 371
31 484
32 35
32 44
32 92
32 104
32 121
32 124
32 135
32 167
32 173
32 194
32 195
32 208
32 281
32 282
32 488
32 489
33 90
33 102
33 103
33 123
33 143
33 205
33 236
33 250
33 251
33 287
33 340
33 445
33 506
33 530
33 588
33 728
33 894
34 37
34 39
34 41
34 44
34 49
34 51
34 52
34 54
34 56
34 59
34 60
34 64
34 67
34 69
34 74
34 77
34 83
34 84
34 89
34 91
34 94
34 95
34 99
34 100
34 102
34 108
34 110
34 124
34 127
34 130
34 133
34 150
34 157
34 158
34 166
34 169
34 181
34 191
34 218
34 227
34 246
34 254
34 560
35 241
35 267
35 308
35 323
35 412
35 413
35 414
35 432
35 492
35 639
35 640
35 641
35 642
35 643
35 644
35 645
35 646
35 647
35 648
35 649
35 653
35 668
35 671
35 674
35 696
35 743
35 749
35 839
35 953
35 954
35 955
35 956
35 959
35 997
36 59
36 63
36 135
36 195
36 271
36 281
36 290
36 342
36 344
36 345
36 348
36 354
36 446
36 463
36 471
36 486
36 519
37 38
37 41
37 42
37 46
37 53
37 56
37 61
37 63
37 67
37 77
37 97
37 121
37 154
37 266
37 315
37 335
37 595
38 43
38 47
38 52
38 54
38 55
38 59
38 67
38 69
38 73
38 77
38 81
38 83
38 100
38 108
38 109
38 110
38 116
38 118
38 124
38 141
38 147
38 151
38 178
38 214
38 229
38 237
38 243
38 265
38 278
38 283
38 323
38 400
38 470
38 577
38 746
39 41
39 49
39 263
39 547
39 869
40 292
40 319
40 361
40 375
40 376
40 379
40 380
40 384
40 465
40 501
40 535
40 638
40 708
40 827
40 853
40 872
40 906
40 907
40 945
41 44
41 51
41 52
41 54
41 56
41 60
41 64
41 67
41 69
41 74
41 76
41 78
41 83
41 84
41 94
41 102
41 110
41 118
41 120
41 124
41 127
41 138
41 144
41 147
41 150
41 158
41 166
41 169
41 181
41 187
41 201
41 215
41 239
42 46
42 51
42 58
42 63
42 64
42 65
42 67
42 69
42 72
42 74
42 93
42 100
42 102
42 110
42 115
42 118
42 176
42 182
42 185
42 218
42 239
42 242
42 262
42 511
43 46
43 48
43 51
43 61
43 63
43 73
43 79
43 107
43 119
43 467
43 533
43 534
43 588
43 625
44 46
44 48
44 55
44 59
44 66
44 68
44 69
44 71
44 77
44 80
44 95
44 99
44 111
44 114
44 167
44 192
44 220
44 282
44 310
44 390
45 48
45 63
45 69
45 81
45 103
45 330
45 381
45 520
45 521
45 544
45 569
45 600
45 816
46 48
46 51
46 55
46 56
46 57
46 59
46 60
46 64
46 65
46 72
46 81
46 110
46 118
46 124
46 125
46 154
46 176
46 182
46 196
47 198
47 233
47 251
47 278
47 283
47 495
47 497
47 582
47 596
47 621
47 752
47 846
48 52
48 54
48 55
48 59
48 61
48 63
48 69
48 71
48 72
48 81
48 115
48 118
48 124
48 126
48 141
48 150
48 201
48 372
48 458
48 715
49 52
49 54
49 67
49 69
49 78
49 84
49 91
49 100
49 102
49 110
49 127
49 133
49 157
49 169
49 191
49 245
49 254
49 269
50 432
50 448
50 586
50 739
50 870
50 900
50 933
51 61
51 100
51 672
52 61
52 63
52 71
52 96
52 243
52 372
52 491
53 59
53 121
53 162
53 197
53 205
53 253
53 314
54 61
54 71
54 298
54 372
54 472
54 476
54 589
54 590
54 928
55 63
55 71
55 92
55 160
55 197
55 306
55 310
55 484
55 630
56 76
56 100
56 592
57 63
57 200
57 213
57 293
57 329
57 491
57 590
58 351
58 429
58 469
58 474
58 522
58 523
58 608
59 71
59 104
59 114
59 121
59 137
59 165
59 177
59 194
59 220
59 282
59 424
60 524
60 610
60 871
61 69
61 81
61 83
61 96
61 118
61 124
61 126
61 150
61 201
61 213
61 293
61 300
61 329
61 795
62 63
62 492
62 493
62 848
63 94
63 96
63 108
63 124
63 139
63 168
63 214
63 304
63 607
63 608
65 148
65 171
65 266
65 673
66 71
66 72
66 115
66 178
66 285
66 494
66 856
66 934
67 305
67 672
68 80
68 104
68 111
68 137
68 165
68 177
69 71
69 80
69 83
69 88
69 107
69 201
69 221
69 270
69 783
69 932
70 76
70 391
70 833
71 95
71 115
71 118
71 124
71 151
71 178
71 182
72 81
72 102
72 137
73 112
73 113
73 117
73 118
73 131
73 132
73 134
73 143
73 164
73 189
73 196
73 217
73 238
73 260
73 284
73 312
74 212
74 324
75 119
75 205
75 440
75 580
75 593
76 170
76 245
77 314
78 93
78 615
78 923
79 236
80 92
80 95
80 102
80 114
80 135
81 83
81 102
81 150
81 203
81 304
81 359
82 171
82 295
82 673
83 92
83 102
83 107
83 214
83 229
83 270
83 280
83 359
83 674
84 145
84 610
85 358
86 358
86 379
87 358
87 405
87 473
87 613
87 654
87 721
88 411
88 631
88 790
89 108
89 389
89 500
90 313
90 552
90 678
91 235
91 315
92 195
92 281
92 299
92 471
92 908
93 522
93 523
93 813
93 863
93 873
93 893
94 268
94 324
94 415
95 111
95 114
95 220
95 587
96 439
96 555
96 589
96 693
97 921
98 353
98 603
98 744
98 750
98 940
98 941
98 942
99 225
100 187
100 650
101 315
102 107
102 115
103 190
103 330
103 334
103 546
103 633
104 162
104 202
104 307
104 835
105 404
105 604
106 396
106 554
106 661
106 904
107 124
107 147
107 178
107 238
107 364
109 115
109 470
109 766
111 162
111 307
111 489
112 129
112 224
112 261
112 386
112 417
112 557
113 662
114 117
114 195
114 205
114 902
115 237
115 244
116 283
116 846
116 847
118 129
119 593
119 935
120 145
120 852
121 135
121 314
122 498
122 550
122 609
122 844
122 857
122 858
123 360
123 386
123 543
123 568
123 643
123 652
123 667
123 682
123 709
123 793
123 803
123 885
125 388
125 549
125 987
126 472
127 862
128 848
129 131
129 143
129 164
129 189
129 196
130 859
131 423
131 695
132 143
132 328
133 819
134 179
134 258
134 267
134 375
134 378
134 381
134 382
134 401
134 412
134 413
134 419
134 478
134 493
134 525
134 538
134 599
134 602
134 810
134 879
134 884
134 895
134 931
135 387
136 357
137 537
138 416
138 833
139 622
139 773
139 828
139 838
139 901
140 792
140 793
141 163
141 836
142 591
143 397
143 909
144 524
145 852
146 234
146 405
146 597
146 985
153 627
153 769
155 425
155 692
155 926
155 927
156 860
157 255
157 475
158 504
159 440
160 540
161 162
161 532
161 855
162 173
162 253
162 298
163 477
163 478
163 800
163 801
163 802
163 803
163 804
163 805
163 806
163 807
163 814
163 989
163 990
163 991
163 992
163 993
163 994
163 995
165 587
166 202
167 295
167 354
168 319
171 204
173 307
173 835
174 824
175 355
175 367
175 473
176 436
176 503
179 401
179 538
179 539
179 810
180 322
180 373
180 409
183 311
183 496
184 275
185 892
186 415
188 499
188 508
189 196
190 531
191 988
194 854
197 198
198 285
200 924
203 918
203 919
204 611
207 308
208 874
209 786
209 986
210 308
211 559
211 601
211 806
211 807
213 407
216 391
217 312
219 390
219 541
220 290
221 670
222 784
222 785
223 794
224 261
224 360
224 557
226 503
228 598
228 681
231 788
231 789
238 406
238 620
240 249
241 287
241 584
241 644
241 648
248 634
251 427
252 256
256 425
258 490
258 898
259 605
259 658
264 929
267 477
267 903
267 936
271 517
271 897
274 479
274 925
279 583
284 498
284 882
293 491
294 548
299 944
310 540
311 352
316 495
320 629
320 781
321 635
351 615
352 920
371 488
374 385
378 520
382 383
388 549
395 396
397 402
398 585
399 400
422 556
422 571
454 958
478 665
601 602
687 722
813 996
818 819
